letting initialStacks = [35, 39, 3, 46, 50, 5, 34, 8, 30, 29, 4, 24, 13, 27, 10, 47, 38, 51, 18, 14, 17, 11, 16, 42, 21, 31, 43, 40, 20, 25, 32, 45, 49, 28, 37, 12, 1, 23, 26, 36, 41, 48, 44, 7, 9, 6, 19, 33, 2, 22, 15]
